%SETS
JOBS     = 1..50;
MACHINES = 1..5;
SPEED    = 5;

time        = array3d(JOBS,MACHINES,1..SPEED,[2, 1, 1, 1, 1, 5, 1, 1, 1, 1, 10, 3, 2, 2, 1, 13, 4, 3, 2, 2, 20, 6, 4, 4, 3, 14, 4, 3, 2, 2, 29, 10, 7, 6, 5, 5, 2, 1, 1, 1, 54, 18, 13, 11, 9, 1, 1, 1, 1, 1, 28, 9, 7, 5, 5, 13, 4, 3, 2, 2, 21, 7, 5, 4, 3, 3, 1, 1, 1, 1, 5, 1, 1, 1, 1, 41, 14, 10, 8, 7, 89, 30, 21, 18, 16, 9, 3, 2, 1, 1, 30, 10, 7, 6, 5, 54, 18, 13, 11, 9, 58, 20, 14, 11, 10, 2, 1, 1, 1, 1, 1, 1, 1, 1, 1, 4, 1, 1, 1, 1, 54, 18, 13, 11, 9, 2, 1, 1, 1, 1, 14, 4, 3, 2, 2, 81, 28, 20, 16, 14, 19, 6, 4, 4, 3, 30, 10, 7, 6, 5, 9, 3, 2, 1, 1, 30, 10, 7, 6, 5, 46, 16, 11, 9, 8, 1, 1, 1, 1, 1, 35, 12, 8, 7, 6, 116, 40, 28, 23, 20, 35, 12, 8, 7, 6, 8, 2, 2, 1, 1, 40, 13, 9, 8, 7, 2, 1, 1, 1, 1, 15, 5, 3, 3, 2, 61, 21, 15, 12, 11, 8, 3, 2, 1, 1, 8, 3, 2, 1, 1, 3, 1, 1, 1, 1, 1, 1, 1, 1, 1, 29, 10, 7, 5, 5, 6, 2, 1, 1, 1, 7, 2, 1, 1, 1, 17, 6, 4, 3, 3, 1, 1, 1, 1, 1, 22, 7, 5, 4, 3, 4, 1, 1, 1, 1, 23, 7, 5, 4, 4, 31, 10, 7, 6, 5, 2, 1, 1, 1, 1, 13, 4, 3, 2, 2, 30, 10, 7, 6, 5, 13, 4, 3, 2, 2, 1, 1, 1, 1, 1, 19, 6, 4, 4, 3, 28, 9, 6, 5, 5, 18, 6, 4, 3, 3, 74, 25, 18, 15, 13, 22, 7, 5, 4, 4, 60, 20, 14, 12, 10, 3, 1, 1, 1, 1, 3, 1, 1, 1, 1, 42, 14, 10, 8, 7, 13, 4, 3, 2, 2, 4, 1, 1, 1, 1, 67, 23, 16, 13, 12, 11, 3, 2, 2, 1, 35, 12, 8, 7, 6, 33, 11, 8, 6, 6, 55, 19, 13, 11, 10, 25, 8, 6, 5, 4, 35, 12, 8, 7, 6, 11, 3, 2, 2, 1, 8, 2, 1, 1, 1, 58, 20, 14, 11, 10, 14, 4, 3, 2, 2, 86, 29, 21, 17, 15, 28, 9, 6, 5, 5, 25, 8, 6, 5, 4, 3, 1, 1, 1, 1, 77, 26, 18, 15, 13, 15, 5, 3, 3, 2, 22, 7, 5, 4, 4, 13, 4, 3, 2, 2, 7, 2, 1, 1, 1, 60, 20, 14, 12, 10, 22, 7, 5, 4, 3, 1, 1, 1, 1, 1, 24, 8, 6, 5, 4, 10, 3, 2, 2, 1, 19, 6, 4, 3, 3, 56, 19, 13, 11, 10, 11, 3, 2, 2, 2, 61, 21, 15, 12, 11, 25, 8, 6, 5, 4, 1, 1, 1, 1, 1, 68, 23, 16, 13, 12, 30, 10, 7, 6, 5, 153, 52, 37, 31, 27, 4, 1, 1, 1, 1, 3, 1, 1, 1, 1, 69, 24, 17, 14, 12, 30, 10, 7, 6, 5, 1, 1, 1, 1, 1, 36, 12, 8, 7, 6, 36, 12, 8, 7, 6, 66, 22, 16, 13, 11, 32, 11, 7, 6, 5, 3, 1, 1, 1, 1, 1, 1, 1, 1, 1, 1, 1, 1, 1, 1, 1, 1, 1, 1, 1, 7, 2, 1, 1, 1, 50, 17, 12, 10, 9, 20, 6, 4, 4, 3, 20, 7, 5, 4, 3, 47, 16, 11, 9, 8, 3, 1, 1, 1, 1, 8, 2, 2, 1, 1, 22, 7, 5, 4, 4, 90, 31, 22, 18, 16, 21, 7, 5, 4, 3, 1, 1, 1, 1, 1, 41, 14, 10, 8, 7, 6, 2, 1, 1, 1, 42, 14, 10, 8, 7, 12, 4, 3, 2, 2, 51, 17, 12, 10, 9, 35, 12, 8, 7, 6, 21, 7, 5, 4, 3, 3, 1, 1, 1, 1, 1, 1, 1, 1, 1, 3, 1, 1, 1, 1, 1, 1, 1, 1, 1, 2, 1, 1, 1, 1, 6, 2, 1, 1, 1, 32, 11, 7, 6, 5, 21, 7, 5, 4, 3, 1, 1, 1, 1, 1, 1, 1, 1, 1, 1, 88, 30, 21, 18, 15, 21, 7, 5, 4, 3, 5, 2, 1, 1, 1, 7, 2, 1, 1, 1, 35, 12, 8, 7, 6, 5, 1, 1, 1, 1, 22, 7, 5, 4, 4, 90, 31, 22, 18, 16, 48, 16, 11, 9, 8, 7, 2, 1, 1, 1, 17, 6, 4, 3, 3, 25, 8, 6, 5, 4, 45, 15, 11, 9, 8, 4, 1, 1, 1, 1, 1, 1, 1, 1, 1, 1, 1, 1, 1, 1, 17, 5, 4, 3, 3, 24, 8, 5, 4, 4, 21, 7, 5, 4, 3, 9, 3, 2, 2, 1, 115, 39, 28, 23, 20, 22, 7, 5, 4, 4, 12, 4, 3, 2, 2, 20, 7, 5, 4, 3, 35, 12, 8, 7, 6, 28, 9, 7, 5, 5, 7, 2, 1, 1, 1, 1, 1, 1, 1, 1, 11, 4, 2, 2, 2, 25, 8, 6, 5, 4, 6, 2, 1, 1, 1, 36, 12, 8, 7, 6, 1, 1, 1, 1, 1, 7, 2, 1, 1, 1, 42, 14, 10, 8, 7, 5, 1, 1, 1, 1, 26, 9, 6, 5, 4, 19, 6, 4, 3, 3, 66, 23, 16, 13, 12, 7, 2, 1, 1, 1, 1, 1, 1, 1, 1, 34, 11, 8, 6, 6, 38, 13, 9, 7, 6, 61, 21, 15, 12, 11, 69, 24, 17, 14, 12, 1, 1, 1, 1, 1, 6, 2, 1, 1, 1, 24, 8, 6, 5, 4, 77, 26, 18, 15, 13, 77, 26, 19, 15, 13, 21, 7, 5, 4, 3, 63, 22, 15, 13, 11, 26, 9, 6, 5, 4, 12, 4, 3, 2, 2, 17, 5, 4, 3, 3, 23, 8, 5, 4, 4, 20, 7, 5, 4, 3, 67, 23, 16, 13, 12, 64, 22, 15, 13, 11, 12, 4, 3, 2, 2, 85, 29, 20, 17, 15, 4, 1, 1, 1, 1, 3, 1, 1, 1, 1, 3, 1, 1, 1, 1, 18, 6, 4, 3, 3, 1, 1, 1, 1, 1, 76, 26, 18, 15, 13, 45, 15, 11, 9, 8, 1, 1, 1, 1, 1, 5, 1, 1, 1, 1, 10, 3, 2, 2, 1, 3, 1, 1, 1, 1, 42, 14, 10, 8, 7, 10, 3, 2, 2, 1, 72, 25, 17, 14, 13, 22, 7, 5, 4, 4, 54, 18, 13, 11, 9, 48, 16, 11, 9, 8, 61, 21, 14, 12, 10, 15, 5, 3, 3, 2, 20, 7, 5, 4, 3, 41, 14, 10, 8, 7, 8, 3, 2, 1, 1, 17, 6, 4, 3, 3, 23, 8, 5, 4, 4, 1, 1, 1, 1, 1, 23, 8, 5, 4, 4, 14, 5, 3, 2, 2, 42, 14, 10, 8, 7, 9, 3, 2, 1, 1, 57, 19, 14, 11, 10, 22, 7, 5, 4, 4, 5, 1, 1, 1, 1, 40, 13, 9, 8, 7, 24, 8, 6, 4, 4, 1, 1, 1, 1, 1, 14, 4, 3, 2, 2, 29, 10, 7, 5, 5, 64, 22, 15, 13, 11, 1, 1, 1, 1, 1, 97, 33, 23, 19, 17, 12, 4, 2, 2, 2, 94, 32, 23, 19, 16, 24, 8, 5, 4, 4]);
energy      = array3d(JOBS,MACHINES,1..SPEED,[98, 99, 99, 99, 99, 95, 99, 99, 99, 99, 90, 97, 98, 98, 99, 87, 96, 97, 98, 98, 81, 94, 96, 96, 97, 86, 96, 97, 98, 98, 74, 90, 93, 94, 95, 95, 98, 99, 99, 99, 58, 83, 87, 89, 91, 99, 99, 99, 99, 99, 75, 91, 93, 95, 95, 87, 96, 97, 98, 98, 81, 93, 95, 96, 97, 97, 99, 99, 99, 99, 95, 99, 99, 99, 99, 66, 86, 90, 92, 93, 41, 74, 81, 83, 85, 91, 97, 98, 99, 99, 74, 90, 93, 94, 95, 58, 83, 87, 89, 91, 55, 81, 86, 89, 90, 98, 99, 99, 99, 99, 99, 99, 99, 99, 99, 96, 99, 99, 99, 99, 58, 83, 87, 89, 91, 98, 99, 99, 99, 99, 86, 96, 97, 98, 98, 44, 75, 81, 85, 86, 82, 94, 96, 96, 97, 74, 90, 93, 94, 95, 91, 97, 98, 99, 99, 74, 90, 93, 94, 95, 63, 85, 89, 91, 92, 99, 99, 99, 99, 99, 70, 88, 92, 93, 94, 31, 67, 75, 79, 81, 70, 88, 92, 93, 94, 92, 98, 98, 99, 99, 67, 87, 91, 92, 93, 98, 99, 99, 99, 99, 86, 95, 97, 97, 98, 54, 81, 86, 88, 89, 92, 97, 98, 99, 99, 92, 97, 98, 99, 99, 97, 99, 99, 99, 99, 99, 99, 99, 99, 99, 74, 90, 93, 95, 95, 94, 98, 99, 99, 99, 93, 98, 99, 99, 99, 84, 94, 96, 97, 97, 99, 99, 99, 99, 99, 80, 93, 95, 96, 97, 96, 99, 99, 99, 99, 79, 93, 95, 96, 96, 73, 90, 93, 94, 95, 98, 99, 99, 99, 99, 87, 96, 97, 98, 98, 74, 90, 93, 94, 95, 87, 96, 97, 98, 98, 99, 99, 99, 99, 99, 82, 94, 96, 96, 97, 75, 91, 94, 95, 95, 83, 94, 96, 97, 97, 47, 77, 83, 86, 87, 80, 93, 95, 96, 96, 54, 81, 86, 88, 90, 97, 99, 99, 99, 99, 97, 99, 99, 99, 99, 65, 86, 90, 92, 93, 87, 96, 97, 98, 98, 96, 99, 99, 99, 99, 51, 79, 85, 87, 88, 89, 97, 98, 98, 99, 70, 88, 92, 93, 94, 71, 89, 92, 94, 94, 57, 82, 87, 89, 90, 77, 92, 94, 95, 96, 70, 88, 92, 93, 94, 89, 97, 98, 98, 99, 92, 98, 99, 99, 99, 55, 81, 86, 89, 90, 86, 96, 97, 98, 98, 42, 74, 81, 84, 86, 75, 91, 94, 95, 95, 77, 92, 94, 95, 96, 97, 99, 99, 99, 99, 46, 77, 83, 86, 87, 86, 95, 97, 97, 98, 80, 93, 95, 96, 96, 87, 96, 97, 98, 98, 93, 98, 99, 99, 99, 54, 81, 86, 88, 90, 80, 93, 95, 96, 97, 99, 99, 99, 99, 99, 78, 92, 94, 95, 96, 90, 97, 98, 98, 99, 82, 94, 96, 97, 97, 57, 82, 87, 89, 90, 89, 97, 98, 98, 98, 54, 81, 86, 88, 89, 77, 92, 94, 95, 96, 99, 99, 99, 99, 99, 50, 79, 85, 87, 88, 74, 90, 93, 94, 95, 21, 59, 69, 73, 76, 96, 99, 99, 99, 99, 97, 99, 99, 99, 99, 50, 78, 84, 86, 88, 74, 90, 93, 94, 95, 99, 99, 99, 99, 99, 69, 88, 92, 93, 94, 69, 88, 92, 93, 94, 51, 80, 85, 87, 89, 72, 89, 93, 94, 95, 97, 99, 99, 99, 99, 99, 99, 99, 99, 99, 99, 99, 99, 99, 99, 99, 99, 99, 99, 99, 93, 98, 99, 99, 99, 60, 84, 88, 90, 91, 81, 94, 96, 96, 97, 81, 93, 95, 96, 97, 62, 85, 89, 91, 92, 97, 99, 99, 99, 99, 92, 98, 98, 99, 99, 80, 93, 95, 96, 96, 40, 73, 80, 83, 85, 81, 93, 95, 96, 97, 99, 99, 99, 99, 99, 66, 86, 90, 92, 93, 94, 98, 99, 99, 99, 65, 86, 90, 92, 93, 88, 96, 97, 98, 98, 60, 84, 88, 90, 91, 70, 88, 92, 93, 94, 81, 93, 95, 96, 97, 97, 99, 99, 99, 99, 99, 99, 99, 99, 99, 97, 99, 99, 99, 99, 99, 99, 99, 99, 99, 98, 99, 99, 99, 99, 94, 98, 99, 99, 99, 72, 89, 93, 94, 95, 81, 93, 95, 96, 97, 99, 99, 99, 99, 99, 99, 99, 99, 99, 99, 41, 74, 81, 83, 86, 81, 93, 95, 96, 97, 95, 98, 99, 99, 99, 93, 98, 99, 99, 99, 70, 88, 92, 93, 94, 95, 99, 99, 99, 99, 80, 93, 95, 96, 96, 40, 73, 80, 83, 85, 61, 85, 89, 91, 92, 93, 98, 99, 99, 99, 84, 94, 96, 97, 97, 77, 92, 94, 95, 96, 63, 86, 89, 91, 92, 96, 99, 99, 99, 99, 99, 99, 99, 99, 99, 99, 99, 99, 99, 99, 84, 95, 96, 97, 97, 78, 92, 95, 96, 96, 81, 93, 95, 96, 97, 91, 97, 98, 98, 99, 31, 67, 75, 79, 81, 80, 93, 95, 96, 96, 88, 96, 97, 98, 98, 81, 93, 95, 96, 97, 70, 88, 92, 93, 94, 75, 91, 93, 95, 95, 93, 98, 99, 99, 99, 99, 99, 99, 99, 99, 89, 96, 98, 98, 98, 77, 92, 94, 95, 96, 94, 98, 99, 99, 99, 69, 88, 92, 93, 94, 99, 99, 99, 99, 99, 93, 98, 99, 99, 99, 65, 86, 90, 92, 93, 95, 99, 99, 99, 99, 77, 91, 94, 95, 96, 82, 94, 96, 97, 97, 51, 79, 85, 87, 88, 93, 98, 99, 99, 99, 99, 99, 99, 99, 99, 71, 89, 92, 94, 94, 68, 87, 91, 93, 94, 54, 81, 86, 88, 89, 50, 78, 84, 86, 88, 99, 99, 99, 99, 99, 94, 98, 99, 99, 99, 78, 92, 94, 95, 96, 46, 77, 83, 86, 87, 46, 77, 82, 86, 87, 81, 93, 95, 96, 97, 53, 80, 86, 87, 89, 77, 91, 94, 95, 96, 88, 96, 97, 98, 98, 84, 95, 96, 97, 97, 79, 92, 95, 96, 96, 81, 93, 95, 96, 97, 51, 79, 85, 87, 88, 52, 80, 86, 87, 89, 88, 96, 97, 98, 98, 42, 74, 81, 84, 86, 96, 99, 99, 99, 99, 97, 99, 99, 99, 99, 97, 99, 99, 99, 99, 83, 94, 96, 97, 97, 99, 99, 99, 99, 99, 46, 77, 83, 86, 87, 63, 86, 89, 91, 92, 99, 99, 99, 99, 99, 95, 99, 99, 99, 99, 90, 97, 98, 98, 99, 97, 99, 99, 99, 99, 65, 86, 90, 92, 93, 90, 97, 98, 98, 99, 48, 77, 84, 86, 87, 80, 93, 95, 96, 96, 58, 83, 87, 89, 91, 61, 85, 89, 91, 92, 54, 81, 86, 88, 90, 86, 95, 97, 97, 98, 81, 93, 95, 96, 97, 66, 86, 90, 92, 93, 92, 97, 98, 99, 99, 84, 94, 96, 97, 97, 79, 92, 95, 96, 96, 99, 99, 99, 99, 99, 79, 92, 95, 96, 96, 86, 95, 97, 98, 98, 65, 86, 90, 92, 93, 91, 97, 98, 99, 99, 56, 82, 86, 89, 90, 80, 93, 95, 96, 96, 95, 99, 99, 99, 99, 67, 87, 91, 92, 93, 78, 92, 94, 96, 96, 99, 99, 99, 99, 99, 86, 96, 97, 98, 98, 74, 90, 93, 95, 95, 52, 80, 86, 87, 89, 99, 99, 99, 99, 99, 37, 71, 79, 82, 84, 88, 96, 98, 98, 98, 39, 72, 79, 82, 85, 78, 92, 95, 96, 96]);
precedence  = array2d(JOBS,MACHINES,[1, 2, 4, 0, 3, 4, 0, 3, 1, 2, 2, 4, 3, 0, 1, 1, 3, 4, 2, 0, 2, 1, 3, 4, 0, 3, 0, 4, 1, 2, 3, 0, 1, 4, 2, 1, 0, 4, 2, 3, 2, 3, 1, 4, 0, 0, 2, 3, 4, 1, 1, 0, 4, 2, 3, 4, 0, 1, 3, 2, 2, 1, 0, 4, 3, 1, 2, 0, 4, 3, 1, 2, 4, 3, 0, 0, 2, 1, 3, 4, 0, 1, 3, 4, 2, 2, 4, 1, 3, 0, 4, 3, 1, 0, 2, 1, 4, 0, 3, 2, 1, 0, 4, 3, 2, 2, 3, 4, 1, 0, 2, 1, 3, 4, 0, 0, 1, 2, 4, 3, 3, 1, 0, 2, 4, 1, 2, 3, 0, 4, 0, 4, 3, 2, 1, 0, 2, 4, 3, 1, 1, 2, 3, 0, 4, 3, 1, 2, 0, 4, 0, 4, 1, 3, 2, 3, 0, 2, 1, 4, 3, 4, 2, 0, 1, 1, 4, 0, 3, 2, 1, 2, 4, 0, 3, 2, 1, 0, 4, 3, 3, 4, 0, 1, 2, 1, 4, 3, 2, 0, 4, 1, 2, 0, 3, 3, 2, 4, 0, 1, 2, 1, 4, 0, 3, 4, 2, 3, 0, 1, 4, 2, 0, 3, 1, 1, 3, 4, 0, 2, 1, 3, 2, 0, 4, 3, 4, 0, 2, 1, 0, 1, 3, 4, 2, 0, 1, 2, 4, 3, 2, 4, 0, 1, 3, 4, 3, 0, 2, 1]);
releaseDate = array2d(JOBS,MACHINES,[3, 4, 9, 0, 5, 109, 80, 108, 94, 107, 22, 35, 29, 20, 21, 45, 64, 96, 55, 30, 104, 103, 122, 123, 90, 106, 90, 107, 93, 99, 86, 40, 54, 90, 75, 48, 40, 105, 90, 104, 83, 86, 81, 108, 80, 20, 27, 34, 36, 23, 17, 10, 38, 18, 24, 78, 60, 63, 75, 74, 42, 34, 30, 51, 46, 81, 96, 80, 100, 97, 99, 100, 132, 121, 90, 70, 92, 83, 98, 100, 0, 21, 35, 71, 26, 59, 65, 55, 60, 50, 53, 36, 21, 20, 26, 40, 95, 20, 92, 42, 101, 100, 171, 164, 110, 112, 113, 114, 101, 100, 114, 101, 131, 151, 100, 80, 82, 83, 101, 84, 73, 64, 50, 72, 82, 101, 107, 140, 100, 145, 0, 38, 34, 10, 1, 50, 60, 62, 61, 59, 99, 101, 102, 90, 109, 116, 81, 107, 80, 117, 100, 160, 109, 126, 114, 87, 60, 80, 69, 88, 75, 76, 70, 60, 65, 5, 17, 0, 14, 7, 41, 52, 63, 40, 61, 95, 94, 70, 103, 102, 74, 86, 30, 36, 42, 19, 48, 35, 21, 0, 53, 18, 19, 10, 20, 77, 72, 109, 60, 67, 125, 116, 173, 100, 130, 36, 2, 35, 0, 1, 97, 80, 60, 81, 79, 22, 27, 29, 10, 24, 86, 125, 109, 60, 130, 72, 75, 40, 67, 60, 20, 25, 39, 47, 27, 50, 52, 66, 90, 76, 52, 76, 40, 43, 58, 165, 113, 60, 77, 63]);
dueDate     = array2d(JOBS,MACHINES,[4, 5, 11, 3, 9, 113, 94, 109, 107, 108, 29, 38, 35, 21, 22, 55, 96, 98, 64, 45, 122, 104, 123, 124, 103, 107, 93, 142, 99, 106, 90, 54, 75, 92, 86, 90, 48, 108, 104, 105, 86, 108, 83, 110, 81, 23, 34, 36, 37, 27, 18, 17, 39, 24, 38, 79, 63, 74, 78, 75, 46, 42, 34, 78, 51, 96, 97, 81, 110, 100, 100, 121, 137, 132, 99, 83, 98, 92, 100, 101, 21, 26, 71, 78, 35, 60, 83, 59, 65, 55, 54, 53, 26, 21, 36, 42, 109, 40, 95, 92, 110, 101, 189, 171, 164, 113, 114, 146, 112, 101, 131, 114, 151, 159, 101, 82, 83, 84, 102, 101, 82, 72, 64, 73, 84, 107, 140, 145, 101, 156, 1, 50, 38, 34, 10, 59, 61, 64, 62, 60, 101, 102, 109, 99, 110, 117, 107, 116, 81, 118, 109, 161, 114, 160, 126, 88, 69, 87, 80, 89, 76, 78, 75, 65, 70, 7, 50, 5, 17, 14, 52, 61, 64, 41, 63, 102, 95, 94, 104, 103, 86, 87, 36, 42, 74, 21, 49, 48, 35, 19, 72, 19, 20, 18, 53, 109, 77, 126, 67, 72, 130, 125, 178, 116, 173, 42, 35, 36, 1, 2, 102, 81, 79, 97, 80, 24, 29, 30, 22, 27, 109, 130, 125, 86, 146, 75, 86, 60, 72, 67, 25, 27, 47, 52, 39, 52, 66, 76, 91, 90, 58, 77, 43, 52, 76, 166, 165, 63, 113, 77]);